100
32
22
31
16
24
24
9
17
6
21
22
4
8
6
31
19
1
18
20
8
8
6
9
1
9
13
2
11
1
23
32
28
16
13
10
2
24
1
2
26
29
10
1
25
14
10
24
2
1
24
1
7
1
12
2
11
10
23
13
23
10
10
1
4
12
1
23
13
12
13
9
13
27
5
10
4
1
5
2
4
16
10
10
13
9
1
1
22
21
2
10
16
8
1
3
2
1
13
1
13
1